--- Job gams_0064_002_32_04_0.67_05_0.25_0.90_24_problem.txt Start 02/24/21 20:03:58 35.2.0 r33388c4 WEX-WEI x86 64bit/MS Windows
--- Applying:
    C:\Users\MariaSosnovskaya\GAMS35\gmsprmNT.txt
--- GAMS Parameters defined
    Input C:\Users\MariaSosnovskaya\Downloads\WfmGams3\problems\gams_0064_002_32_04_0.67_05_0.25_0.90_24_problem.txt
    ScrDir C:\Users\MariaSosnovskaya\Downloads\WfmGams3\225k\
    SysDir C:\Users\MariaSosnovskaya\GAMS35\
Licensee: GAMS Evaluation License                        S210124/0001AB-GEN
          Sobolev Institute of Mathematics, Discrete Optimization LaDCE1098
          C:\Users\MariaSosnovskaya\GAMS35\gamslice.txt
          Evaluation license: Not for commercial or production use
GAMS 35.2.0   Copyright (C) 1987-2021 GAMS Development. All rights reserved
--- Starting compilation
--- gams_0064_002_32_04_0.67_05_0.25_0.90_24_problem.txt(22) 3 Mb
--- . gams_0064_002_32_04_0.67_05_0.25_0.90_24.inc(6600) 3 Mb
--- gams_0064_002_32_04_0.67_05_0.25_0.90_24_problem.txt(98) 3 Mb
--- Starting execution: elapsed 0:00:00.135
--- gams_0064_002_32_04_0.67_05_0.25_0.90_24_problem.txt(6621) 4 Mb
--- Generating MIP model mymodel
--- gams_0064_002_32_04_0.67_05_0.25_0.90_24_problem.txt(6677) 8 Mb--- gams_0064_002_32_04_0.67_05_0.25_0.90_24_problem.txt(6677) 9 Mb
---   16,769 rows  12,289 columns  56,385 non-zeroes
---   12,288 discrete-columns
--- Executing CPLEX (Solvelink=2): elapsed 0:00:00.260

IBM ILOG CPLEX   35.2.0 r33388c4 Released Jun 02, 2021 WEI x86 64bit/MS Window

--- GAMS/Cplex licensed for continuous and discrete problems.
--- Space for names approximately 0.61 Mb
--- Use option 'names no' to turn use of names off
--- GMO memory 6.31 Mb (peak 6.40 Mb)
--- Dictionary memory 0.00 Mb
--- Cplex 20.1.0.1 link memory 0.43 Mb (peak 1.99 Mb)
--- Starting Cplex

Version identifier: 20.1.0.1 | 2021-04-07 | 3a818710c
CPXPARAM_Advance                                 0
CPXPARAM_Threads                                 1
CPXPARAM_MIP_Display                             4
CPXPARAM_TimeLimit                               3600
CPXPARAM_MIP_Tolerances_AbsMIPGap                0
Generic callback                                 0x50
Tried aggregator 2 times.
MIP Presolve eliminated 8321 rows and 834 columns.
Aggregator did 192 substitutions.
Reduced MIP has 8256 rows, 11264 columns, and 37864 nonzeros.
Reduced MIP has 11264 binaries, 0 generals, 0 SOSs, and 0 indicators.
Presolve time = 0.06 sec. (42.39 ticks)
Probing fixed 896 vars, tightened 0 bounds.
Probing changed sense of 48 constraints.
Probing time = 0.08 sec. (29.74 ticks)
Tried aggregator 16 times.
MIP Presolve eliminated 384 rows and 956 columns.
Aggregator did 384 substitutions.
Reduced MIP has 7488 rows, 9924 columns, and 33720 nonzeros.
Reduced MIP has 9924 binaries, 0 generals, 0 SOSs, and 0 indicators.
Presolve time = 0.65 sec. (319.33 ticks)
Probing time = 0.02 sec. (4.45 ticks)
Tried aggregator 1 time.
Detecting symmetries...
Reduced MIP has 7488 rows, 9924 columns, and 33720 nonzeros.
Reduced MIP has 9924 binaries, 0 generals, 0 SOSs, and 0 indicators.
Presolve time = 0.06 sec. (30.07 ticks)
Probing time = 0.02 sec. (4.45 ticks)
Clique table members: 24722.
MIP emphasis: balance optimality and feasibility.
MIP search method: dynamic search.
Parallel mode: none, using 1 thread.
Tried aggregator 1 time.
No LP presolve or aggregator reductions.
Presolve time = 0.00 sec. (4.37 ticks)
Initializing dual steep norms . . .

Iteration log . . .
Iteration:     1   Dual objective     =          8725.000000
Perturbation started.
Iteration:   101   Dual objective     =          8725.000000
Iteration:   479   Dual objective     =          8724.999818
Iteration:   842   Dual objective     =          8724.999707
Iteration:  1213   Dual objective     =          8724.999589
Iteration:  1579   Dual objective     =          8724.999469
Iteration:  1935   Dual objective     =          8724.999346
Iteration:  2288   Dual objective     =          8724.999224
Iteration:  2632   Dual objective     =          8724.999161
Iteration:  2980   Dual objective     =          8724.999117
Iteration:  3315   Dual objective     =          8724.999085
Iteration:  3645   Dual objective     =          8724.999060
Iteration:  3956   Dual objective     =          8724.999039
Iteration:  4263   Dual objective     =          8724.999021
Iteration:  4557   Dual objective     =          8724.999006
Iteration:  4828   Dual objective     =          8724.998994
Iteration:  5081   Dual objective     =          8724.998984
Iteration:  5308   Dual objective     =          8724.998975
Iteration:  5555   Dual objective     =          8724.998964
Iteration:  5744   Dual objective     =          8724.998959
Iteration:  5947   Dual objective     =          8724.998950
Iteration:  6090   Dual objective     =          8724.998945
Iteration:  6229   Dual objective     =          8724.998941
Iteration:  6364   Dual objective     =          8724.998936
Iteration:  6502   Dual objective     =          8724.998933
Iteration:  6634   Dual objective     =          8724.998930
Iteration:  6776   Dual objective     =          8724.998926
Iteration:  6909   Dual objective     =          8724.998923
Iteration:  7047   Dual objective     =          8724.998922
Iteration:  7175   Dual objective     =          8724.998920
Iteration:  7308   Dual objective     =          8724.998919
Iteration:  7429   Dual objective     =          8724.998918
Iteration:  7551   Dual objective     =          8724.998917
Iteration:  7667   Dual objective     =          8724.998917
Iteration:  7783   Dual objective     =          8724.998916
Iteration:  7901   Dual objective     =          8724.998916
Removing perturbation.
Root relaxation solution time = 1.03 sec. (564.83 ticks)

        Nodes                                         Cuts/
   Node  Left     Objective  IInf  Best Integer    Best Bound    ItCnt     Gap

      0     0     8725.0000  1107                   8725.0000     7935         
      0     0     8725.0000   310                    Cuts: 15     8569         
      0     0     8725.0000   398                    Cuts: 69     9189         
      0     2     8725.0000    45                   8725.0000     9189         
Elapsed time = 7.80 sec. (4550.50 ticks, tree = 0.01 MB, solutions = 0)
     10     8     8725.0000   260                   8725.0000    11486         
     17    15     8725.0000   307                   8725.0000    13815         
     33    29     8725.0000   445                   8725.0000    17113         
     46    40     8717.0000   410                   8725.0000    19955         
     60    54     8725.0000   180                   8725.0000    21851         
     69    63     8725.0000   214                   8725.0000    23974         
     86    80     8725.0000   214                   8725.0000    27114         
    100    94     8725.0000   129                   8725.0000    29820         
    112   106     8725.0000   198                   8725.0000    32772         
    130   124     8725.0000   514                   8725.0000    43388         
Elapsed time = 13.29 sec. (8104.41 ticks, tree = 1.06 MB, solutions = 0)
    153   145     8725.0000   280                   8725.0000    48635         
    182   174     8725.0000   338                   8725.0000    55729         
    227   219     8722.0000   412                   8725.0000    71389         
    257   249     8725.0000   277                   8725.0000    83944         
    280   272     8725.0000   285                   8725.0000    89537         
    291   283     8725.0000   322                   8725.0000    95184         
    332   322     8725.0000   408                   8725.0000   105914         
    357   347     8725.0000   372                   8725.0000   117085         
    368   358     8725.0000   449                   8725.0000   126612         
    384   374     8725.0000   388                   8725.0000   134828         
Elapsed time = 31.90 sec. (19420.79 ticks, tree = 4.41 MB, solutions = 0)
    387   377     8725.0000   492                   8725.0000   140990         
    396   386     8725.0000   528                   8725.0000   148862         
    400   390     8725.0000   369                   8725.0000   150600         
    432   422     8725.0000   331                   8725.0000   166423         
    436   426     8725.0000   475                   8725.0000   173785         
    440   430     8725.0000   543                   8725.0000   177814         
    444   434     8725.0000   429                   8725.0000   183870         
    450   440     8725.0000   505                   8725.0000   191729         
    459   449     8725.0000   417                   8725.0000   201541         
    463   453     8725.0000   642                   8725.0000   208070         
Elapsed time = 51.53 sec. (31286.86 ticks, tree = 5.20 MB, solutions = 0)
    483   473     8725.0000   361                   8725.0000   221689         
    504   494     8725.0000   336                   8725.0000   237916         
    513   503     8725.0000   441                   8725.0000   248529         
    519   509     8725.0000   499                   8725.0000   255903         
    523   513     8725.0000   447                   8725.0000   260846         
    525   515     8725.0000   654                   8725.0000   270067         
    528   518     8725.0000   748                   8725.0000   274865         
    531   521     8725.0000   633                   8725.0000   280138         
    533   523     8724.6379   725                   8725.0000   286239         
    539   529     8724.4141   658                   8725.0000   291327         
Elapsed time = 69.28 sec. (42434.25 ticks, tree = 5.82 MB, solutions = 0)
    572   562     8724.5885   653                   8725.0000   295941         
    600   590     8723.3693   629                   8725.0000   300821         
    626   616     8721.0020   524                   8725.0000   306261         
    677   666     8717.7075   484                   8725.0000   311701         
    719   701     8691.4128   656                   8725.0000   317002         
    767   729     8725.0000   334                   8725.0000   324298         
                                                      Cuts: 2                  
    783   745     8725.0000   426                   8725.0000   334376         
    800   762     8725.0000   543                   8725.0000   341214         
    830   792     8725.0000   393                   8725.0000   350587         
    841   803     8725.0000   249                   8725.0000   358441         
Elapsed time = 86.81 sec. (53477.70 ticks, tree = 7.22 MB, solutions = 0)
    853   815     8725.0000   213                   8725.0000   366211         
    870   832     8725.0000   184                   8725.0000   374655         
    886   848     8725.0000   202                   8725.0000   383334         
    915   877     8725.0000   334                   8725.0000   392502         
    944   906     8725.0000   320                   8725.0000   401974         
    954   916     8725.0000   424                   8725.0000   409019         

Performing restart 1

Repeating presolve.
Tried aggregator 1 time.
Reduced MIP has 7488 rows, 9924 columns, and 33720 nonzeros.
Reduced MIP has 9924 binaries, 0 generals, 0 SOSs, and 0 indicators.
Presolve time = 0.03 sec. (18.82 ticks)
Tried aggregator 1 time.
Reduced MIP has 7488 rows, 9924 columns, and 33720 nonzeros.
Reduced MIP has 9924 binaries, 0 generals, 0 SOSs, and 0 indicators.
Presolve time = 0.05 sec. (30.68 ticks)
Represolve time = 0.25 sec. (109.43 ticks)
Tried aggregator 1 time.
No LP presolve or aggregator reductions.
Presolve time = 0.02 sec. (4.42 ticks)
Initializing dual steep norms . . .

Iteration log . . .
Iteration:     1   Dual objective     =          8725.000000
Perturbation started.
Iteration:   101   Dual objective     =          8725.000000
Iteration:   495   Dual objective     =          8724.999815
Iteration:   857   Dual objective     =          8724.999714
Iteration:  1217   Dual objective     =          8724.999598
Iteration:  1579   Dual objective     =          8724.999467
Iteration:  1941   Dual objective     =          8724.999328
Iteration:  2310   Dual objective     =          8724.999203
Iteration:  2627   Dual objective     =          8724.999164
Iteration:  2965   Dual objective     =          8724.999113
Iteration:  3302   Dual objective     =          8724.999086
Iteration:  3625   Dual objective     =          8724.999060
Iteration:  3931   Dual objective     =          8724.999040
Iteration:  4226   Dual objective     =          8724.999020
Iteration:  4520   Dual objective     =          8724.999005
Iteration:  4795   Dual objective     =          8724.998989
Iteration:  5060   Dual objective     =          8724.998977
Iteration:  5292   Dual objective     =          8724.998968
Iteration:  5486   Dual objective     =          8724.998963
Iteration:  5684   Dual objective     =          8724.998956
Iteration:  5855   Dual objective     =          8724.998949
Iteration:  6014   Dual objective     =          8724.998944
Iteration:  6151   Dual objective     =          8724.998937
Iteration:  6300   Dual objective     =          8724.998932
Iteration:  6445   Dual objective     =          8724.998928
Iteration:  6591   Dual objective     =          8724.998924
Iteration:  6727   Dual objective     =          8724.998921
Iteration:  6864   Dual objective     =          8724.998918
Iteration:  6993   Dual objective     =          8724.998914
Iteration:  7138   Dual objective     =          8724.998911
Iteration:  7270   Dual objective     =          8724.998909
Iteration:  7394   Dual objective     =          8724.998907
Iteration:  7529   Dual objective     =          8724.998906
Iteration:  7646   Dual objective     =          8724.998904
Iteration:  7767   Dual objective     =          8724.998903
Iteration:  7880   Dual objective     =          8724.998903
Iteration:  7996   Dual objective     =          8724.998903
Removing perturbation.
    962     0     8725.0000   707                    Cuts: 22   421321         
    962     0     8725.0000   498                   Cuts: 111   422634         
    962     0     8725.0000   545                    Cuts: 44   423264         
    962     0     8725.0000   168                    Cuts: 10   423458         
    962     0     8725.0000   125                    Cuts: 55   423887         
    962     0     8725.0000   191                    Cuts: 32   424142         
*   962+    0                         8725.0000     8725.0000             0.00%
Found incumbent of value 8725.000000 after 104.66 sec. (64698.84 ticks)
    962     0        cutoff           8725.0000     8725.0000   424142    0.00%

Zero-half cuts applied:  8
Gomory fractional cuts applied:  3

Root node processing (before b&c):
  Real time             =    7.77 sec. (4536.08 ticks)
Sequential b&c:
  Real time             =   96.91 sec. (60163.31 ticks)
                          ------------
Total (root+branch&cut) =  104.68 sec. (64699.39 ticks)

--- MIP status (101): integer optimal solution.
--- Cplex Time: 104.68sec (det. 64699.42 ticks)

--- Fixing integer variables and solving final LP...

Version identifier: 20.1.0.1 | 2021-04-07 | 3a818710c
CPXPARAM_Advance                                 2
CPXPARAM_Threads                                 1
CPXPARAM_MIP_Display                             4
CPXPARAM_TimeLimit                               3600
CPXPARAM_MIP_Tolerances_AbsMIPGap                0
Tried aggregator 1 time.
LP Presolve eliminated 16769 rows and 12290 columns.
All rows and columns eliminated.
Presolve time = 0.02 sec. (7.10 ticks)

--- Fixed MIP status (1): optimal.
--- Cplex Time: 0.02sec (det. 12.44 ticks)


Proven optimal solution
MIP Solution:         8725.000000    (424142 iterations, 962 nodes)
Final Solve:          8725.000000    (0 iterations)

Best possible:        8725.000000
Absolute gap:            0.000000
Relative gap:            0.000000

--- Reading solution for model mymodel
--- gams_0064_002_32_04_0.67_05_0.25_0.90_24_problem.txt(6677) 9 Mb  104 secs
--- Executing after solve: elapsed 0:01:45.111
--- gams_0064_002_32_04_0.67_05_0.25_0.90_24_problem.txt(6678) 9 Mb--- gams_0064_002_32_04_0.67_05_0.25_0.90_24_problem.txt(6698) 9 Mb
--- Putfile results C:\Users\MariaSosnovskaya\Downloads\WfmGams3\problems\gams_0064_002_32_04_0.67_05_0.25_0.90_24_results.txt
*** Status: Normal completion
--- Job gams_0064_002_32_04_0.67_05_0.25_0.90_24_problem.txt Stop 02/24/21 20:05:43 elapsed 0:01:45.132
